# Objective value = 5104.91
I_0_0 1251
I_0_1 1762
I_0_2 1511
I_0_3 1320
I_0_4 1.5940000000000002e+03
I_0_5 1350
I_0_6 1861
I_1_0 78
I_1_1 0
I_1_2 78
I_1_3 78
I_1_4 0
I_1_5 78
I_1_6 0
I_2_0 43
I_2_1 0
I_2_2 43
I_2_3 43
I_2_4 0
I_2_5 43
I_2_6 0
I_3_0 150
I_3_1 75
I_3_2 0
I_3_3 150
I_3_4 7.4999999999999730e+01
I_3_5 150
I_3_6 7.5000000000000028e+01
I_4_0 110
I_4_1 55
I_4_2 0
I_4_3 110
I_4_4 5.5000000000000028e+01
I_4_5 110
I_4_6 5.5000000000000028e+01
I_5_0 51
I_5_1 0
I_5_2 51
I_5_3 51
I_5_4 0
I_5_5 51
I_5_6 0
I_6_0 198
I_6_1 99
I_6_2 198
I_6_3 198
I_6_4 198
I_6_5 9.8999999999999943e+01
I_6_6 0
I_7_0 69
I_7_1 0
I_7_2 69
I_7_3 0
I_7_4 69
I_7_5 69
I_7_6 0
I_8_0 12
I_8_1 0
I_8_2 12
I_8_3 12
I_8_4 0
I_8_5 12
I_8_6 0
I_9_0 10
I_9_1 0
I_9_2 10
I_9_3 10
I_9_4 0
I_9_5 10
I_9_6 0
I_10_0 19
I_10_1 0
I_10_2 19
I_10_3 19
I_10_4 0
I_10_5 19
I_10_6 0
q_1_0 0
q_1_1 156
q_1_2 78
q_1_3 0
q_1_4 156
q_1_5 0
q_2_0 0
q_2_1 86
q_2_2 43
q_2_3 0
q_2_4 86
q_2_5 0
q_3_0 0
q_3_1 0
q_3_2 225
q_3_3 0
q_3_4 1.5000000000000037e+02
q_3_5 0
q_4_0 0
q_4_1 0
q_4_2 165
q_4_3 0
q_4_4 1.0999999999999979e+02
q_4_5 0
q_5_0 0
q_5_1 102
q_5_2 51
q_5_3 0
q_5_4 102
q_5_5 0
q_6_0 0
q_6_1 198
q_6_2 99
q_6_3 9.8999999999999829e+01
q_6_4 0
q_6_5 0
q_7_0 0
q_7_1 138
q_7_2 0
q_7_3 138
q_7_4 69
q_7_5 0
q_8_0 0
q_8_1 24
q_8_2 12
q_8_3 0
q_8_4 24
q_8_5 0
q_9_0 0
q_9_1 20
q_9_2 10
q_9_3 0
q_9_4 20
q_9_5 0
q_10_0 0
q_10_1 38
q_10_2 19
q_10_3 0
q_10_4 38
q_10_5 0
y_0_0 0
y_0_1 1
y_0_2 1
y_0_3 1
y_0_4 1
y_0_5 0
y_1_0 0
y_1_1 1
y_1_2 1
y_1_3 0
y_1_4 1
y_1_5 0
y_2_0 0
y_2_1 1
y_2_2 1
y_2_3 0
y_2_4 1
y_2_5 0
y_3_0 0
y_3_1 0
y_3_2 1
y_3_3 0
y_3_4 1
y_3_5 0
y_4_0 0
y_4_1 0
y_4_2 1
y_4_3 0
y_4_4 1
y_4_5 0
y_5_0 0
y_5_1 1
y_5_2 1
y_5_3 0
y_5_4 1
y_5_5 0
y_6_0 0
y_6_1 1
y_6_2 1
y_6_3 1
y_6_4 0
y_6_5 0
y_7_0 0
y_7_1 1
y_7_2 0
y_7_3 1
y_7_4 1
y_7_5 0
y_8_0 0
y_8_1 1
y_8_2 1
y_8_3 0
y_8_4 1
y_8_5 0
y_9_0 0
y_9_1 1
y_9_2 1
y_9_3 0
y_9_4 1
y_9_5 0
y_10_0 0
y_10_1 1
y_10_2 1
y_10_3 0
y_10_4 1
y_10_5 0
x_0_1_0 0
x_0_1_1 0
x_0_1_2 0
x_0_1_3 0
x_0_1_4 0
x_0_1_5 0
x_0_2_0 0
x_0_2_1 0
x_0_2_2 0
x_0_2_3 0
x_0_2_4 0
x_0_2_5 0
x_0_3_0 0
x_0_3_1 0
x_0_3_2 0
x_0_3_3 0
x_0_3_4 0
x_0_3_5 0
x_0_4_0 0
x_0_4_1 0
x_0_4_2 0
x_0_4_3 0
x_0_4_4 0
x_0_4_5 0
x_0_5_0 0
x_0_5_1 0
x_0_5_2 0
x_0_5_3 0
x_0_5_4 0
x_0_5_5 0
x_0_6_0 0
x_0_6_1 1
x_0_6_2 1
x_0_6_3 1
x_0_6_4 0
x_0_6_5 0
x_0_7_0 0
x_0_7_1 1
x_0_7_2 0
x_0_7_3 1
x_0_7_4 1
x_0_7_5 0
x_0_8_0 0
x_0_8_1 0
x_0_8_2 0
x_0_8_3 0
x_0_8_4 0
x_0_8_5 0
x_0_9_0 0
x_0_9_1 0
x_0_9_2 1
x_0_9_3 0
x_0_9_4 0
x_0_9_5 0
x_0_10_0 0
x_0_10_1 0
x_0_10_2 0
x_0_10_3 0
x_0_10_4 1
x_0_10_5 0
x_1_2_0 0
x_1_2_1 1
x_1_2_2 1
x_1_2_3 0
x_1_2_4 1
x_1_2_5 0
x_1_3_0 0
x_1_3_1 0
x_1_3_2 0
x_1_3_3 0
x_1_3_4 0
x_1_3_5 0
x_1_4_0 0
x_1_4_1 0
x_1_4_2 0
x_1_4_3 0
x_1_4_4 0
x_1_4_5 0
x_1_5_0 0
x_1_5_1 0
x_1_5_2 0
x_1_5_3 0
x_1_5_4 0
x_1_5_5 0
x_1_6_0 0
x_1_6_1 0
x_1_6_2 0
x_1_6_3 0
x_1_6_4 0
x_1_6_5 0
x_1_7_0 0
x_1_7_1 0
x_1_7_2 0
x_1_7_3 0
x_1_7_4 0
x_1_7_5 0
x_1_8_0 0
x_1_8_1 0
x_1_8_2 0
x_1_8_3 0
x_1_8_4 0
x_1_8_5 0
x_1_9_0 0
x_1_9_1 1
x_1_9_2 1
x_1_9_3 0
x_1_9_4 1
x_1_9_5 0
x_1_10_0 0
x_1_10_1 0
x_1_10_2 0
x_1_10_3 0
x_1_10_4 0
x_1_10_5 0
x_2_3_0 0
x_2_3_1 0
x_2_3_2 0
x_2_3_3 0
x_2_3_4 0
x_2_3_5 0
x_2_4_0 0
x_2_4_1 0
x_2_4_2 1
x_2_4_3 0
x_2_4_4 1
x_2_4_5 0
x_2_5_0 0
x_2_5_1 0
x_2_5_2 0
x_2_5_3 0
x_2_5_4 0
x_2_5_5 0
x_2_6_0 0
x_2_6_1 0
x_2_6_2 0
x_2_6_3 0
x_2_6_4 0
x_2_6_5 0
x_2_7_0 0
x_2_7_1 0
x_2_7_2 0
x_2_7_3 0
x_2_7_4 0
x_2_7_5 0
x_2_8_0 0
x_2_8_1 1
x_2_8_2 0
x_2_8_3 0
x_2_8_4 0
x_2_8_5 0
x_2_9_0 0
x_2_9_1 0
x_2_9_2 0
x_2_9_3 0
x_2_9_4 0
x_2_9_5 0
x_2_10_0 0
x_2_10_1 0
x_2_10_2 0
x_2_10_3 0
x_2_10_4 0
x_2_10_5 0
x_3_4_0 0
x_3_4_1 0
x_3_4_2 0
x_3_4_3 0
x_3_4_4 0
x_3_4_5 0
x_3_5_0 0
x_3_5_1 0
x_3_5_2 1
x_3_5_3 0
x_3_5_4 1
x_3_5_5 0
x_3_6_0 0
x_3_6_1 0
x_3_6_2 0
x_3_6_3 0
x_3_6_4 0
x_3_6_5 0
x_3_7_0 0
x_3_7_1 0
x_3_7_2 0
x_3_7_3 0
x_3_7_4 0
x_3_7_5 0
x_3_8_0 0
x_3_8_1 0
x_3_8_2 0
x_3_8_3 0
x_3_8_4 0
x_3_8_5 0
x_3_9_0 0
x_3_9_1 0
x_3_9_2 0
x_3_9_3 0
x_3_9_4 0
x_3_9_5 0
x_3_10_0 0
x_3_10_1 0
x_3_10_2 1
x_3_10_3 0
x_3_10_4 1
x_3_10_5 0
x_4_5_0 0
x_4_5_1 0
x_4_5_2 0
x_4_5_3 0
x_4_5_4 0
x_4_5_5 0
x_4_6_0 0
x_4_6_1 0
x_4_6_2 0
x_4_6_3 0
x_4_6_4 0
x_4_6_5 0
x_4_7_0 0
x_4_7_1 0
x_4_7_2 0
x_4_7_3 0
x_4_7_4 0
x_4_7_5 0
x_4_8_0 0
x_4_8_1 0
x_4_8_2 1
x_4_8_3 0
x_4_8_4 1
x_4_8_5 0
x_4_9_0 0
x_4_9_1 0
x_4_9_2 0
x_4_9_3 0
x_4_9_4 0
x_4_9_5 0
x_4_10_0 0
x_4_10_1 0
x_4_10_2 0
x_4_10_3 0
x_4_10_4 0
x_4_10_5 0
x_5_6_0 0
x_5_6_1 0
x_5_6_2 0
x_5_6_3 0
x_5_6_4 0
x_5_6_5 0
x_5_7_0 0
x_5_7_1 0
x_5_7_2 0
x_5_7_3 0
x_5_7_4 0
x_5_7_5 0
x_5_8_0 0
x_5_8_1 1
x_5_8_2 1
x_5_8_3 0
x_5_8_4 1
x_5_8_5 0
x_5_9_0 0
x_5_9_1 0
x_5_9_2 0
x_5_9_3 0
x_5_9_4 0
x_5_9_5 0
x_5_10_0 0
x_5_10_1 1
x_5_10_2 0
x_5_10_3 0
x_5_10_4 0
x_5_10_5 0
x_6_7_0 0
x_6_7_1 0
x_6_7_2 0
x_6_7_3 1
x_6_7_4 0
x_6_7_5 0
x_6_8_0 0
x_6_8_1 0
x_6_8_2 0
x_6_8_3 0
x_6_8_4 0
x_6_8_5 0
x_6_9_0 0
x_6_9_1 0
x_6_9_2 0
x_6_9_3 0
x_6_9_4 0
x_6_9_5 0
x_6_10_0 0
x_6_10_1 1
x_6_10_2 1
x_6_10_3 0
x_6_10_4 0
x_6_10_5 0
x_7_8_0 0
x_7_8_1 0
x_7_8_2 0
x_7_8_3 0
x_7_8_4 0
x_7_8_5 0
x_7_9_0 0
x_7_9_1 1
x_7_9_2 0
x_7_9_3 0
x_7_9_4 1
x_7_9_5 0
x_7_10_0 0
x_7_10_1 0
x_7_10_2 0
x_7_10_3 0
x_7_10_4 0
x_7_10_5 0
x_8_9_0 0
x_8_9_1 0
x_8_9_2 0
x_8_9_3 0
x_8_9_4 0
x_8_9_5 0
x_8_10_0 0
x_8_10_1 0
x_8_10_2 0
x_8_10_3 0
x_8_10_4 0
x_8_10_5 0
x_9_10_0 0
x_9_10_1 0
x_9_10_2 0
x_9_10_3 0
x_9_10_4 0
x_9_10_5 0
